data;

param n := 13;
param s := 1;
param t := 13;

param : E :   c :=
1	2	1
1	3	1
2	3	1
2	4	1
3	13	1
4	5	1
4	6	1
5	6	1
5	9	1
6	3	1
6	7	1
6	8	1
7	9	1
8	9	1
9	10	1
10	11	1
10	12	1
11	12	1
12	13	1;

end;